SimulationType                MonteCarlo
NumberOfCycles                20000
NumberOfInitializationCycles  10000
PrintEvery                    1000
RestartFile                   no

Forcefield                    GarciaPerez2006ForceField
UseChargesFromCIFFile yes

Framework 0
FrameworkName EHIHEI_clean
UnitCells 3 3 3
ExternalTemperature    298.0
ExternalPressure    500000.0

Component 0 MoleculeName             H2
            MoleculeDefinition       ExampleDefinitions
            FugacityCoefficient      1.0
            TranslationProbability   0.5
            RotationProbability      0.5
            ReinsertionProbability   0.5
            SwapProbability          1.0
            CreateNumberOfMolecules  0


