SimulationType                MonteCarlo
NumberOfCycles                20000
NumberOfInitializationCycles  10000
PrintEvery                    5000
RestartFile                   no

Forcefield                    GarciaPerez2006ForceField

Framework 0
FrameworkName COCMUE_clean
UnitCells 1 1 1
ExternalTemperature    298.0
ExternalPressure    500000.0

Component 0 MoleculeName             argon
            MoleculeDefinition       ExampleDefinitions
            FugacityCoefficient      1.0
            TranslationProbability   0.5
            RotationProbability      0.5
            ReinsertionProbability   0.5
            SwapProbability          1.0
            CreateNumberOfMolecules  0


