SimulationType                MonteCarlo
NumberOfCycles                0
NumberOfInitializationCycles  0
PrintEvery                    0
RestartFile                   no

Forcefield                    GarciaPerez2006ForceField
ChargeFromChargeEquilibration yes

Framework 0
FrameworkName PURSAY_clean
UnitCells 1 1 1
ExternalTemperature    298.0
ExternalPressure    500000.0

Component 0 MoleculeName             O2
            MoleculeDefinition       ExampleDefinitions
            FugacityCoefficient      1.0
            TranslationProbability   0.5
            RotationProbability      0.5
            ReinsertionProbability   0.5
            SwapProbability          1.0
            CreateNumberOfMolecules  0


