SimulationType                MonteCarlo
NumberOfCycles                20000
NumberOfInitializationCycles  10000
PrintEvery                    1000
RestartFile                   no

Forcefield                    GarciaPerez2006ForceField
UseChargesFromCIFFile yes

Framework 0
FrameworkName WEBKAR_clean
UnitCells 1 1 1
ExternalTemperature    293.0
ExternalPressure    1000.0

Component 0 MoleculeName             helium
            MoleculeDefinition       ExampleDefinitions
            FugacityCoefficient      1.0
            TranslationProbability   0.5
            RotationProbability      0.5
            ReinsertionProbability   0.5
            SwapProbability          1.0
            CreateNumberOfMolecules  0


