SimulationType                MonteCarlo
NumberOfCycles                0
NumberOfInitializationCycles  0
PrintEvery                    0
RestartFile                   no
UseChargesFromCIFFile yes

Forcefield                    GarciaPerez2006ForceField

Framework 0
FrameworkName XUKLAS_clean
UnitCells 4 2 2
ExternalTemperature    298.0
ExternalPressure    500000.0

Component 0 MoleculeName             CO2
            MoleculeDefinition       ExampleDefinitions
            FugacityCoefficient      1.0
            TranslationProbability   0.5
            RotationProbability      0.5
            ReinsertionProbability   0.5
            SwapProbability          1.0
            CreateNumberOfMolecules  0


