SimulationType                MonteCarlo
NumberOfCycles                20000
NumberOfInitializationCycles  10000
PrintEvery                    1000
RestartFile                   no

Forcefield                    GarciaPerez2006ForceField
UseChargesFromCIFFile yes

Framework 0
FrameworkName SOBZEQ_clean
UnitCells 3 2 2
ExternalTemperature    298.0
ExternalPressure    500000.0

Component 0 MoleculeName             O2
            MoleculeDefinition       ExampleDefinitions
            FugacityCoefficient      1.0
            TranslationProbability   0.5
            RotationProbability      0.5
            ReinsertionProbability   0.5
            SwapProbability          1.0
            CreateNumberOfMolecules  0


